data/CVRPLIB/Vrp-Set-XML100/instances/XML100_2216_04.vrp
NAME : XML100_2216_04
COMMENT : Generated by Queiroga, Sadykov, Uchoa, and Vidal (2021)
TYPE : CVRP
DIMENSION : 101
EDGE_WEIGHT_TYPE : EUC_2D
CAPACITY : 46
NODE_COORD_SECTION
1    500  500 
2    195  244 
3    203  154 
4    793  451 
5    640  979 
6    712  198 
7    881  104 
8    66   179 
9    568  914 
10   752  508 
11   837  313 
12   290  99  
13   183  122 
14   601  827 
15   229  6   
16   713  528 
17   755  426 
18   121  169 
19   863  370 
20   731  556 
21   817  216 
22   696  679 
23   694  430 
24   134  248 
25   759  346 
26   711  529 
27   837  342 
28   276  18  
29   66   103 
30   733  977 
31   870  124 
32   882  243 
33   873  593 
34   55   103 
35   845  548 
36   751  821 
37   802  266 
38   732  469 
39   866  451 
40   969  369 
41   698  411 
42   52   180 
43   685  571 
44   567  494 
45   653  533 
46   729  266 
47   791  447 
48   69   173 
49   630  979 
50   844  260 
51   645  534 
52   127  149 
53   81   78  
54   80   210 
55   684  591 
56   950  514 
57   832  217 
58   714  531 
59   705  176 
60   166  259 
61   150  114 
62   873  548 
63   485  518 
64   857  265 
65   807  612 
66   196  85  
67   686  1000
68   650  529 
69   471  636 
70   778  262 
71   687  895 
72   612  628 
73   54   191 
74   6    197 
75   633  951 
76   366  10  
77   681  994 
78   750  359 
79   499  750 
80   675  936 
81   651  385 
82   86   171 
83   952  331 
84   24   85  
85   838  430 
86   642  807 
87   737  440 
88   808  224 
89   313  121 
90   704  519 
91   842  277 
92   111  104 
93   785  601 
94   832  350 
95   684  983 
96   720  515 
97   647  984 
98   830  241 
99   824  439 
100  671  373 
101  793  636 
DEMAND_SECTION
1    0   
2    1   
3    1   
4    1   
5    1   
6    1   
7    1   
8    1   
9    1   
10   1   
11   1   
12   1   
13   1   
14   1   
15   1   
16   1   
17   1   
18   1   
19   1   
20   1   
21   1   
22   1   
23   1   
24   1   
25   1   
26   1   
27   1   
28   1   
29   1   
30   1   
31   1   
32   1   
33   1   
34   1   
35   1   
36   1   
37   1   
38   1   
39   1   
40   1   
41   1   
42   1   
43   1   
44   1   
45   1   
46   1   
47   1   
48   1   
49   1   
50   1   
51   1   
52   1   
53   1   
54   1   
55   1   
56   1   
57   1   
58   1   
59   1   
60   1   
61   1   
62   1   
63   1   
64   1   
65   1   
66   1   
67   1   
68   1   
69   1   
70   1   
71   1   
72   1   
73   1   
74   1   
75   1   
76   1   
77   1   
78   1   
79   1   
80   1   
81   1   
82   1   
83   1   
84   1   
85   1   
86   1   
87   1   
88   1   
89   1   
90   1   
91   1   
92   1   
93   1   
94   1   
95   1   
96   1   
97   1   
98   1   
99   1   
100  1   
101  1   
DEPOT_SECTION
1
-1
EOF
