data/CVRPLIB/Vrp-Set-XML100/solutions/XML100_2216_04.sol
Route #1: 43 50 67 44 89 25 15 57 95 9 37 86 16 46 3 98 84 38 55 39 82 18 93 26 10 90 49 63 31 6 30 56 20 87 97 36 69 58 5 45 24 77 40 22 99 80
Route #2: 88 11 75 27 14 65 2 12 60 91 52 83 33 28 51 17 81 47 7 41 73 72 53 23 59 1
Route #3: 62 68 78 85 13 8 74 48 4 96 94 76 66 29 79 70 35 21 100 92 64 32 61 34 19 42 54 71
Cost 5972
